(set-info :smt-lib-version 2.7)
(set-logic ALL)
(set-info :source |
Generated on: 2026-06-22
Generator: pog2smtlib-2.7 github.com/CLEARSY/pog2smtlib-2.7 (-l HO_ALL -rpX)
Application: Discharging a proof obligation generated by aTelierB from an anonymized B machine
Target solver: CVC5 (--mbqi --enum-inst)
Time limit: 1200.0
|)
(set-info :license "www.gnu.org/licenses/gpl-3.0.en.html")
(set-info :category "industrial")
(set-info :status unknown)

(define-sort |Z| () Int)
(declare-datatype C (par (T1 T2) ((maplet (fst T1) (snd T2)))))
(define-sort |BOOL| () Bool)
(declare-sort P 1)
(define-sort |(Z x BOOL)| () (C |Z| |BOOL|))
(define-sort |POW BOOL| () (P |BOOL|))
(define-sort |POW Z| () (P |Z|))
(define-sort |POW (Z x BOOL)| () (P |(Z x BOOL)|))
(declare-fun |set.in BOOL| (|BOOL| |POW BOOL|) Bool)
(declare-fun |set.in Z| (|Z| |POW Z|) Bool)
(define-sort |POW POW (Z x BOOL)| () (P |POW (Z x BOOL)|))
(declare-fun |set.in (Z x BOOL)| (|(Z x BOOL)| |POW (Z x BOOL)|) Bool)
(declare-fun |set.in POW (Z x BOOL)| (|POW (Z x BOOL)| |POW POW (Z x BOOL)|) Bool)
(declare-fun |set.subseteq (Z x BOOL)| (|POW (Z x BOOL)| |POW (Z x BOOL)|) Bool)
(assert (!
    (forall ((s |POW (Z x BOOL)|) (t |POW (Z x BOOL)|))
      (=
        (|set.subseteq (Z x BOOL)| s t)
        (forall ((e |(Z x BOOL)|)) (=> (|set.in (Z x BOOL)| e s) (|set.in (Z x BOOL)| e t)))
      )
    )
    :named |ax.set.subseteq (Z x BOOL)|))
(declare-fun |sub-sets (Z x BOOL)| (|POW (Z x BOOL)|) |POW POW (Z x BOOL)|)
(assert (!
  (forall ((s |POW (Z x BOOL)|) (t |POW (Z x BOOL)|))
    (=
      (|set.in POW (Z x BOOL)| s (|sub-sets (Z x BOOL)| t))
      (|set.subseteq (Z x BOOL)| s t)))
  :named |ax.sub-sets (Z x BOOL)|))
(declare-fun |set.product Z BOOL| (|POW Z| |POW BOOL|) |POW (Z x BOOL)|)
(assert (!
  (forall ((s1 |POW Z|) (s2 |POW BOOL|))
    (forall ((p |(Z x BOOL)|))
      (= (|set.in (Z x BOOL)| p (|set.product Z BOOL| s1 s2))
        (and (|set.in Z| (fst p) s1) (|set.in BOOL| (snd p) s2)))))
  :named |ax.set.in.product.1 (Z x BOOL)|))
(assert (!
  (forall ((s1 |POW Z|) (s2 |POW BOOL|))
    (forall ((x1 |Z|) (x2 |BOOL|))
      (= (|set.in (Z x BOOL)| (maplet x1 x2) (|set.product Z BOOL| s1 s2))
        (and (|set.in Z| x1 s1) (|set.in BOOL| x2 s2)))))
  :named |ax.set.in.product.2 (Z x BOOL)|))
(declare-fun |rel.domain Z BOOL| (|POW (Z x BOOL)|) |POW Z|)
(assert (!
  (forall ((r |POW (Z x BOOL)|) (e |Z|))
    (= (|set.in Z| e (|rel.domain Z BOOL| r))
       (exists ((y |BOOL|)) (|set.in (Z x BOOL)| (maplet e y) r))))
  :named |ax:set.in.domain (Z x BOOL)|))
(declare-fun |relations Z BOOL| (|POW Z| |POW BOOL|) |POW POW (Z x BOOL)|)
(assert (!
  (forall ((X |POW Z|) (Y |POW BOOL|))
    (= (|relations Z BOOL| X Y)
       (|sub-sets (Z x BOOL)| (|set.product Z BOOL| X Y))))
    :named |def.relations (Z x BOOL)|))
(declare-fun |functions Z BOOL| (|POW Z| |POW BOOL|) |POW POW (Z x BOOL)|)
(assert (!
  (forall ((X |POW Z|) (Y |POW BOOL|))
    (forall ((f |POW (Z x BOOL)|))
      (= (|set.in POW (Z x BOOL)| f (|functions Z BOOL| X Y))
         (forall ((p |(Z x BOOL)|) (q |(Z x BOOL)|))
           (=> (and (|set.in (Z x BOOL)| p f) (|set.in (Z x BOOL)| q f) (= (fst p) (fst q)))
               (= (snd p) (snd q)))))))
:named |ax:set.in.functions (Z x BOOL)|))
(declare-const s3 |Z|)
(declare-const s2 |Z|)
(declare-const s0 |Z|)
(declare-const s20 |BOOL|)
(declare-const s5 |POW (Z x BOOL)|)
(declare-const s4 |POW (Z x BOOL)|)
(declare-const s7 |POW (Z x BOOL)|)
(declare-const s6 |POW (Z x BOOL)|)
(declare-const s1 |Z|)
(declare-fun |fun.eval Z BOOL| (|POW (Z x BOOL)| |Z|) |BOOL|)
 (assert (!
    (forall ((f |POW (Z x BOOL)|)(x |Z|))
        (|set.in (Z x BOOL)| (maplet x (|fun.eval Z BOOL| f x)) f))
    :named |ax.fun.eval (Z x BOOL)|))
(declare-fun |rel.image Z BOOL| (|POW (Z x BOOL)| |POW Z|) |POW BOOL|)
(assert (!
  (forall ((r |POW (Z x BOOL)|) (s |POW Z|) (x |BOOL|))
    (= (|set.in BOOL| x (|rel.image Z BOOL| r s))
       (exists ((y |Z|)) (and (|set.in Z| y s) (|set.in (Z x BOOL)| (maplet y x) r)))))
  :named |ax:set.in.image (Z x POW (Z x BOOL))|))
(declare-fun |set.subseteq Z| (|POW Z| |POW Z|) Bool)
(assert (!
    (forall ((s |POW Z|) (t |POW Z|))
      (=
        (|set.subseteq Z| s t)
        (forall ((e |Z|)) (=> (|set.in Z| e s) (|set.in Z| e t)))
      )
    )
    :named |ax.set.subseteq Z|))
(define-sort |? (Z x BOOL)| () (-> |(Z x BOOL)| Bool))
(declare-const |set.intent (Z x BOOL)| (-> |? (Z x BOOL)| |POW (Z x BOOL)|))
(assert (!
  (forall ((p |? (Z x BOOL)|))
    (forall ((x |(Z x BOOL)|))
      (= (|set.in (Z x BOOL)| x (|set.intent (Z x BOOL)| p))
         (@ p x))))
  :named |ax:set.in.intent (Z x BOOL)|))
(declare-fun |rel.overwrite Z BOOL| (|POW (Z x BOOL)| |POW (Z x BOOL)|) |POW (Z x BOOL)|)
(assert (!
  (forall ((r1 |POW (Z x BOOL)|) (r2 |POW (Z x BOOL)|))
    (forall ((x |(Z x BOOL)|))
      (= (|set.in (Z x BOOL)| x (|rel.overwrite Z BOOL| r1 r2))
         (or (and (|set.in (Z x BOOL)| x r1)
                  (not (|set.in Z| (fst x) (|rel.domain Z BOOL| r1))))
             (|set.in (Z x BOOL)| x r2)))))
  :named |ax:set.in.overwrite (Z x BOOL)|))
(declare-fun |interval| (|Z| |Z|) |POW Z|)
 (assert (!
    (forall ((l |Z|) (u |Z|) (e |Z|))
        (= (|set.in Z| e (|interval| l u))
            (and (<= l e) (<= e u))))
    :named |ax.set.in.interval|))
(declare-const NATURAL |POW Z|)
(assert (!
  (forall ((e |Z|)) (= (|set.in Z| e NATURAL) (<= 0 e)))
  :named |ax.set.in.NATURAL|))
(declare-const BOOL |POW BOOL|)
(assert (!
  (forall ((e |BOOL|)) (|set.in BOOL| e BOOL))
  :named |ax.set.in.BOOL|))
(declare-fun |functions.partial Z BOOL| (|POW Z| |POW BOOL|) |POW POW (Z x BOOL)|)
(assert (!
  (forall ((e1 |POW Z|) (e2 |POW BOOL|))
    (forall ((f |POW (Z x BOOL)|))
      (= (|set.in POW (Z x BOOL)| f (|functions.partial Z BOOL| e1 e2))
         (and (|set.in POW (Z x BOOL)| f (|relations Z BOOL| e1 e2))
              (|set.in POW (Z x BOOL)| f (|functions Z BOOL| e1 e2))))))
  :named |ax:def.pfun (Z x BOOL)|)
)
(assert (!
  (=>
  (not
    (|set.in BOOL| true (|rel.image Z BOOL| s6 (|interval| (- s3 s2) s3))))
  (= s20 false))
  :named |Local_Hyp:1|))
(assert (!
  (|set.in Z| s0 NATURAL)
  :named |Define:lprp:0|))
(assert (!
  (|set.in Z| s2 NATURAL)
  :named |Define:lprp:2|))
(assert (!
  (>= s1 s2)
  :named |Define:lprp:3|))
(assert (!
  (|set.in Z| s3 NATURAL)
  :named |Define:inv:0|))
(assert (!
  (|set.in POW (Z x BOOL)| s4 (|functions.partial Z BOOL| (|interval| s0 s3) BOOL))
  :named |Define:inv:1|))
(assert (!
  (|set.in POW (Z x BOOL)| s5 (|functions.partial Z BOOL| (|interval| s0 s3) BOOL))
  :named |Define:inv:2|))
(assert (!
  (|set.in POW (Z x BOOL)| s6 (|functions.partial Z BOOL| (|interval| s0 s3) BOOL))
  :named |Define:inv:3|))
(assert (!
  (|set.in POW (Z x BOOL)| s7 (|functions.partial Z BOOL| (|interval| s0 s3) BOOL))
  :named |Define:inv:4|))
(assert (!
  (<= s0 s3)
  :named |Define:inv:5|))
(assert (!
  (|set.subseteq Z| (|interval| s0 (- s3 1)) (|rel.domain Z BOOL| s7))
  :named |Define:inv:6|))
(assert (!
  (|set.subseteq (Z x BOOL)| s6 s5)
  :named |Define:inv:8|))
(assert (!
  (forall
  ((s8 |Z|))
  (=>
    (and
      (|set.in Z| s8 (|rel.domain Z BOOL| s7))
      (= (|fun.eval Z BOOL| s7 s8) true))
    (|set.in BOOL| true (|rel.image Z BOOL| s6 (|interval| (- s8 s2) s8)))))
  :named |Define:inv:9|))
(assert (!
  (forall
  ((s10 |Z|))
  (=>
    (and
      (|set.in Z| s10 (|interval| s0 s3))
      (|set.in Z| s10 (|rel.domain Z BOOL| s4))
      (= (|fun.eval Z BOOL| s4 s10) false))
    (or
      (<= s3 (+ s10 s2))
      (|set.in BOOL| false (|rel.image Z BOOL| s7 (|interval| s10 (+ s10 s2)))))))
  :named |Define:ass:0|))
(assert (!
  (|set.in Z| s1 NATURAL)
  :named |Define:lprp:1|))
(assert (!
  (|set.subseteq (Z x BOOL)| s5 s4)
  :named |Define:inv:7|))
(assert (!
  (forall
  ((s9 |Z|))
  (=>
    (and
      (|set.in Z| s9 (|rel.domain Z BOOL| s4))
      (= (|fun.eval Z BOOL| s4 s9) false))
    (not
      (|set.in BOOL| true (|rel.image Z BOOL| s5 (|interval| s9 (+ s9 s1)))))))
  :named |Define:inv:10|))
(assert (!
  (not
    (|set.subseteq Z| (|interval| s0 (- s3 1)) (|rel.domain Z BOOL| (|rel.overwrite Z BOOL| s7 (|set.intent (Z x BOOL)| (lambda ((_c0 |(Z x BOOL)|)) (= _c0 (maplet s3 s20))))))))
  :named |Goal|))
(check-sat)
(exit)
